/* Objective function */
min: +C1 +C2 +C3 +C4 +C5 +C6 +C7 +C8 +C9 +C10;

/* Constraints */
+C11 +C12 +C13 +C14 +C15 +C16 +C17 +C18 +C19 +C20 = 1;
+C21 +C22 +C23 +C24 +C25 +C26 +C27 +C28 +C29 +C30 = 1;
+C31 +C32 +C33 +C34 +C35 +C36 +C37 +C38 +C39 +C40 = 1;
+C41 +C42 +C43 +C44 +C45 +C46 +C47 +C48 +C49 +C50 = 1;
+C51 +C52 +C53 +C54 +C55 +C56 +C57 +C58 +C59 +C60 = 1;
+C61 +C62 +C63 +C64 +C65 +C66 +C67 +C68 +C69 +C70 = 1;
+C71 +C72 +C73 +C74 +C75 +C76 +C77 +C78 +C79 +C80 = 1;
+C81 +C82 +C83 +C84 +C85 +C86 +C87 +C88 +C89 +C90 = 1;
+C91 +C92 +C93 +C94 +C95 +C96 +C97 +C98 +C99 +C100 = 1;
+C101 +C102 +C103 +C104 +C105 +C106 +C107 +C108 +C109 +C110 = 1;
+2 C11 +4 C21 +C31 +2 C41 +2 C51 +C61 +10 C71 +3 C81 +5 C91 +2 C101 <= 16;
+3 C11 +2 C21 +C31 +2 C41 +C51 +16 C61 +C71 +10 C81 +5 C91 +3 C101 <= 18;
+2 C12 +4 C22 +C32 +2 C42 +2 C52 +C62 +10 C72 +3 C82 +5 C92 +2 C102 <= 16;
+3 C12 +2 C22 +C32 +2 C42 +C52 +16 C62 +C72 +10 C82 +5 C92 +3 C102 <= 18;
+2 C13 +4 C23 +C33 +2 C43 +2 C53 +C63 +10 C73 +3 C83 +5 C93 +2 C103 <= 16;
+3 C13 +2 C23 +C33 +2 C43 +C53 +16 C63 +C73 +10 C83 +5 C93 +3 C103 <= 18;
+2 C14 +4 C24 +C34 +2 C44 +2 C54 +C64 +10 C74 +3 C84 +5 C94 +2 C104 <= 16;
+3 C14 +2 C24 +C34 +2 C44 +C54 +16 C64 +C74 +10 C84 +5 C94 +3 C104 <= 18;
+2 C15 +4 C25 +C35 +2 C45 +2 C55 +C65 +10 C75 +3 C85 +5 C95 +2 C105 <= 16;
+3 C15 +2 C25 +C35 +2 C45 +C55 +16 C65 +C75 +10 C85 +5 C95 +3 C105 <= 18;
+2 C16 +4 C26 +C36 +2 C46 +2 C56 +C66 +10 C76 +3 C86 +5 C96 +2 C106 <= 16;
+3 C16 +2 C26 +C36 +2 C46 +C56 +16 C66 +C76 +10 C86 +5 C96 +3 C106 <= 18;
+2 C17 +4 C27 +C37 +2 C47 +2 C57 +C67 +10 C77 +3 C87 +5 C97 +2 C107 <= 16;
+3 C17 +2 C27 +C37 +2 C47 +C57 +16 C67 +C77 +10 C87 +5 C97 +3 C107 <= 18;
+2 C18 +4 C28 +C38 +2 C48 +2 C58 +C68 +10 C78 +3 C88 +5 C98 +2 C108 <= 16;
+3 C18 +2 C28 +C38 +2 C48 +C58 +16 C68 +C78 +10 C88 +5 C98 +3 C108 <= 18;
+2 C19 +4 C29 +C39 +2 C49 +2 C59 +C69 +10 C79 +3 C89 +5 C99 +2 C109 <= 16;
+3 C19 +2 C29 +C39 +2 C49 +C59 +16 C69 +C79 +10 C89 +5 C99 +3 C109 <= 18;
+2 C20 +4 C30 +C40 +2 C50 +2 C60 +C70 +10 C80 +3 C90 +5 C100 +2 C110 <= 16;
+3 C20 +2 C30 +C40 +2 C50 +C60 +16 C70 +C80 +10 C90 +5 C100 +3 C110 <= 18;
-10000000 C1 +C11 +C21 +C31 +C41 +C51 +C61 +C71 +C81 +C91 +C101 <= 0;
-10000000 C2 +C12 +C22 +C32 +C42 +C52 +C62 +C72 +C82 +C92 +C102 <= 0;
-10000000 C3 +C13 +C23 +C33 +C43 +C53 +C63 +C73 +C83 +C93 +C103 <= 0;
-10000000 C4 +C14 +C24 +C34 +C44 +C54 +C64 +C74 +C84 +C94 +C104 <= 0;
-10000000 C5 +C15 +C25 +C35 +C45 +C55 +C65 +C75 +C85 +C95 +C105 <= 0;
-10000000 C6 +C16 +C26 +C36 +C46 +C56 +C66 +C76 +C86 +C96 +C106 <= 0;
-10000000 C7 +C17 +C27 +C37 +C47 +C57 +C67 +C77 +C87 +C97 +C107 <= 0;
-10000000 C8 +C18 +C28 +C38 +C48 +C58 +C68 +C78 +C88 +C98 +C108 <= 0;
-10000000 C9 +C19 +C29 +C39 +C49 +C59 +C69 +C79 +C89 +C99 +C109 <= 0;
-10000000 C10 +C20 +C30 +C40 +C50 +C60 +C70 +C80 +C90 +C100 +C110 <= 0;

/* Variable bounds */
C1 <= 1;
C2 <= 1;
C3 <= 1;
C4 <= 1;
C5 <= 1;
C6 <= 1;
C7 <= 1;
C8 <= 1;
C9 <= 1;
C10 <= 1;
C11 <= 1;
C12 <= 1;
C13 <= 1;
C14 <= 1;
C15 <= 1;
C16 <= 1;
C17 <= 1;
C18 <= 1;
C19 <= 1;
C20 <= 1;
C21 <= 1;
C22 <= 1;
C23 <= 1;
C24 <= 1;
C25 <= 1;
C26 <= 1;
C27 <= 1;
C28 <= 1;
C29 <= 1;
C30 <= 1;
C31 <= 1;
C32 <= 1;
C33 <= 1;
C34 <= 1;
C35 <= 1;
C36 <= 1;
C37 <= 1;
C38 <= 1;
C39 <= 1;
C40 <= 1;
C41 <= 1;
C42 <= 1;
C43 <= 1;
C44 <= 1;
C45 <= 1;
C46 <= 1;
C47 <= 1;
C48 <= 1;
C49 <= 1;
C50 <= 1;
C51 <= 1;
C52 <= 1;
C53 <= 1;
C54 <= 1;
C55 <= 1;
C56 <= 1;
C57 <= 1;
C58 <= 1;
C59 <= 1;
C60 <= 1;
C61 <= 1;
C62 <= 1;
C63 <= 1;
C64 <= 1;
C65 <= 1;
C66 <= 1;
C67 <= 1;
C68 <= 1;
C69 <= 1;
C70 <= 1;
C71 <= 1;
C72 <= 1;
C73 <= 1;
C74 <= 1;
C75 <= 1;
C76 <= 1;
C77 <= 1;
C78 <= 1;
C79 <= 1;
C80 <= 1;
C81 <= 1;
C82 <= 1;
C83 <= 1;
C84 <= 1;
C85 <= 1;
C86 <= 1;
C87 <= 1;
C88 <= 1;
C89 <= 1;
C90 <= 1;
C91 <= 1;
C92 <= 1;
C93 <= 1;
C94 <= 1;
C95 <= 1;
C96 <= 1;
C97 <= 1;
C98 <= 1;
C99 <= 1;
C100 <= 1;
C101 <= 1;
C102 <= 1;
C103 <= 1;
C104 <= 1;
C105 <= 1;
C106 <= 1;
C107 <= 1;
C108 <= 1;
C109 <= 1;
C110 <= 1;

/* Integer definitions */
int C1,C2,C3,C4,C5,C6,C7,C8,C9,C10,C11,C12,C13,C14,C15,C16,C17,C18,C19,C20,C21,C22,C23,C24,C25,C26,C27,C28,C29,C30,C31,C32,C33,C34,C35,C36,C37,C38,C39,C40,C41,C42,C43,C44,C45,C46,C47,C48,C49,C50,C51,C52,C53,C54,C55,C56,C57,C58,C59,C60,C61,C62,C63,C64,C65,C66,C67,C68,C69,C70,C71,C72,C73,C74,C75,C76,C77,C78,C79,C80,C81,C82,C83,C84,C85,C86,C87,C88,C89,C90,C91,C92,C93,C94,C95,C96,C97,C98,C99,C100,C101,C102,C103,C104,C105,C106,C107,C108,C109,C110;
